33D32945 STP File, STP Format Version 1.0

SECTION Comment
Name    "i160-141"
Creator "Cees Duin"
Remark  "Incidence graph"
END

SECTION Graph
Nodes 160
Edges 2544
E 1 3 297
E 1 4 305
E 1 6 294
E 1 9 304
E 1 11 301
E 1 13 192
E 1 18 204
E 1 19 202
E 1 24 188
E 1 26 199
E 1 33 195
E 1 42 204
E 1 49 206
E 1 57 194
E 1 58 206
E 1 60 198
E 1 65 199
E 1 72 194
E 1 74 198
E 1 76 202
E 1 80 194
E 1 85 198
E 1 96 202
E 1 97 195
E 1 108 203
E 1 111 200
E 1 114 213
E 1 130 203
E 1 131 188
E 1 146 198
E 1 148 201
E 1 150 198
E 1 154 193
E 1 155 202
E 1 156 197
E 1 160 202
E 2 7 307
E 2 12 302
E 2 14 193
E 2 23 193
E 2 24 208
E 2 27 198
E 2 28 194
E 2 33 202
E 2 38 200
E 2 56 199
E 2 57 203
E 2 67 195
E 2 74 198
E 2 75 210
E 2 78 201
E 2 82 200
E 2 85 205
E 2 91 198
E 2 93 191
E 2 95 203
E 2 101 205
E 2 108 195
E 2 112 205
E 2 123 193
E 2 127 197
E 2 129 203
E 2 133 199
E 2 138 195
E 2 141 197
E 2 146 198
E 2 149 202
E 2 157 194
E 2 158 200
E 2 160 195
E 3 5 299
E 3 6 296
E 3 9 295
E 3 14 197
E 3 16 193
E 3 18 195
E 3 20 202
E 3 26 200
E 3 31 203
E 3 37 207
E 3 60 198
E 3 64 194
E 3 65 207
E 3 68 192
E 3 86 206
E 3 91 195
E 3 92 212
E 3 96 204
E 3 111 197
E 3 122 211
E 3 125 200
E 3 128 194
E 3 129 196
E 3 131 209
E 3 133 205
E 3 134 205
E 3 137 197
E 3 143 205
E 3 155 196
E 3 159 205
E 4 10 290
E 4 11 295
E 4 22 202
E 4 23 199
E 4 26 193
E 4 27 202
E 4 28 209
E 4 30 194
E 4 31 195
E 4 43 190
E 4 44 207
E 4 49 196
E 4 55 202
E 4 60 205
E 4 61 200
E 4 64 203
E 4 66 205
E 4 70 205
E 4 71 195
E 4 75 200
E 4 85 191
E 4 88 199
E 4 89 200
E 4 92 204
E 4 94 205
E 4 100 202
E 4 103 191
E 4 104 203
E 4 105 197
E 4 106 196
E 4 108 203
E 4 113 204
E 4 119 199
E 4 131 202
E 4 132 199
E 4 133 204
E 4 135 201
E 4 146 198
E 4 148 197
E 4 151 187
E 5 7 302
E 5 13 203
E 5 14 192
E 5 16 205
E 5 24 208
E 5 26 205
E 5 27 191
E 5 29 198
E 5 43 195
E 5 48 197
E 5 53 190
E 5 67 205
E 5 70 198
E 5 82 204
E 5 86 196
E 5 89 205
E 5 90 200
E 5 91 198
E 5 93 191
E 5 101 197
E 5 102 206
E 5 117 202
E 5 118 202
E 5 121 202
E 5 124 208
E 5 131 203
E 5 132 205
E 5 143 202
E 5 149 193
E 5 151 199
E 5 158 206
E 5 160 202
E 6 10 304
E 6 12 301
E 6 16 197
E 6 17 203
E 6 22 209
E 6 25 204
E 6 26 198
E 6 32 198
E 6 48 200
E 6 52 204
E 6 55 199
E 6 57 202
E 6 58 197
E 6 59 202
E 6 60 193
E 6 61 198
E 6 67 203
E 6 69 195
E 6 80 196
E 6 85 200
E 6 91 209
E 6 106 196
E 6 107 203
E 6 110 197
E 6 117 198
E 6 122 199
E 6 125 203
E 6 137 203
E 6 138 200
E 6 143 200
E 6 145 202
E 6 148 197
E 6 151 197
E 6 158 210
E 6 159 210
E 7 12 294
E 7 18 200
E 7 19 198
E 7 22 204
E 7 23 194
E 7 34 202
E 7 37 197
E 7 45 198
E 7 46 194
E 7 48 190
E 7 54 198
E 7 80 208
E 7 82 199
E 7 97 199
E 7 103 200
E 7 105 199
E 7 118 196
E 7 119 194
E 7 124 198
E 7 125 203
E 7 138 200
E 7 141 208
E 7 149 200
E 7 151 202
E 8 10 298
E 8 17 201
E 8 19 194
E 8 26 202
E 8 29 202
E 8 30 197
E 8 31 195
E 8 33 210
E 8 41 201
E 8 49 208
E 8 64 202
E 8 67 204
E 8 69 199
E 8 72 200
E 8 73 191
E 8 81 198
E 8 83 204
E 8 84 191
E 8 95 205
E 8 97 203
E 8 99 203
E 8 109 200
E 8 110 197
E 8 112 198
E 8 118 200
E 8 119 195
E 8 133 192
E 8 137 206
E 8 145 200
E 8 147 198
E 8 148 196
E 8 149 199
E 8 151 199
E 8 157 200
E 8 159 197
E 9 13 197
E 9 17 198
E 9 19 206
E 9 24 203
E 9 31 190
E 9 34 201
E 9 37 207
E 9 41 201
E 9 45 207
E 9 50 200
E 9 54 189
E 9 60 203
E 9 71 204
E 9 73 199
E 9 79 195
E 9 80 206
E 9 81 202
E 9 85 200
E 9 86 198
E 9 90 207
E 9 92 196
E 9 94 204
E 9 96 196
E 9 98 199
E 9 105 202
E 9 109 201
E 9 112 198
E 9 113 200
E 9 118 195
E 9 120 201
E 9 126 190
E 9 131 200
E 9 139 200
E 9 143 204
E 9 144 204
E 9 148 194
E 9 149 201
E 9 151 188
E 9 153 204
E 9 154 202
E 10 11 307
E 10 24 200
E 10 40 200
E 10 41 208
E 10 47 186
E 10 48 193
E 10 50 194
E 10 56 192
E 10 57 200
E 10 68 199
E 10 71 205
E 10 73 196
E 10 80 201
E 10 91 198
E 10 96 196
E 10 97 199
E 10 101 197
E 10 106 203
E 10 107 191
E 10 110 192
E 10 122 196
E 10 123 201
E 10 125 199
E 10 134 199
E 10 137 200
E 10 139 203
E 10 141 205
E 10 146 197
E 10 158 200
E 11 13 192
E 11 29 193
E 11 43 195
E 11 65 201
E 11 67 197
E 11 85 205
E 11 90 199
E 11 91 205
E 11 97 203
E 11 103 203
E 11 105 193
E 11 110 203
E 11 115 204
E 11 118 194
E 11 127 204
E 11 131 204
E 11 133 209
E 11 135 194
E 11 144 199
E 11 146 199
E 11 147 200
E 11 154 206
E 12 15 197
E 12 16 198
E 12 18 197
E 12 29 209
E 12 31 198
E 12 35 190
E 12 37 191
E 12 43 199
E 12 47 196
E 12 55 197
E 12 57 199
E 12 61 204
E 12 66 193
E 12 76 205
E 12 88 197
E 12 89 209
E 12 93 205
E 12 94 198
E 12 102 197
E 12 104 202
E 12 109 211
E 12 112 197
E 12 133 196
E 12 135 200
E 13 16 91
E 13 22 96
E 13 23 97
E 13 32 96
E 13 34 97
E 13 36 99
E 13 54 103
E 13 55 99
E 13 64 105
E 13 79 106
E 13 80 96
E 13 85 98
E 13 88 98
E 13 94 99
E 13 101 101
E 13 112 103
E 13 113 98
E 13 115 97
E 13 120 95
E 13 123 105
E 13 124 92
E 13 130 103
E 13 131 93
E 13 132 99
E 13 138 96
E 13 140 105
E 13 143 94
E 13 148 98
E 13 152 102
E 14 16 101
E 14 19 104
E 14 24 94
E 14 25 96
E 14 35 97
E 14 51 98
E 14 57 96
E 14 72 93
E 14 86 106
E 14 91 98
E 14 93 105
E 14 97 101
E 14 98 108
E 14 108 107
E 14 111 99
E 14 119 92
E 14 120 108
E 14 121 105
E 14 123 94
E 14 125 97
E 14 138 96
E 14 141 96
E 14 144 105
E 14 148 100
E 14 158 105
E 15 21 95
E 15 23 98
E 15 28 103
E 15 42 98
E 15 45 91
E 15 52 91
E 15 55 97
E 15 68 98
E 15 70 90
E 15 76 94
E 15 77 87
E 15 88 103
E 15 92 104
E 15 93 95
E 15 97 97
E 15 101 95
E 15 109 84
E 15 116 101
E 15 118 100
E 15 119 99
E 15 126 100
E 15 132 106
E 15 133 107
E 15 134 103
E 15 137 110
E 15 141 101
E 15 143 104
E 15 153 101
E 16 24 96
E 16 30 101
E 16 33 111
E 16 38 89
E 16 45 101
E 16 48 96
E 16 59 104
E 16 65 98
E 16 67 101
E 16 73 94
E 16 74 107
E 16 75 98
E 16 92 93
E 16 110 108
E 16 111 94
E 16 120 105
E 16 123 102
E 16 129 99
E 16 130 90
E 16 132 103
E 16 134 88
E 16 142 92
E 16 145 107
E 16 147 111
E 16 149 101
E 16 153 97
E 16 158 103
E 16 159 108
E 16 160 91
E 17 18 94
E 17 23 104
E 17 25 98
E 17 26 95
E 17 30 95
E 17 31 103
E 17 34 98
E 17 44 95
E 17 49 99
E 17 60 97
E 17 61 105
E 17 71 95
E 17 78 100
E 17 83 101
E 17 94 92
E 17 95 103
E 17 97 104
E 17 100 103
E 17 115 101
E 17 117 101
E 17 121 100
E 17 123 106
E 17 128 102
E 17 132 98
E 17 133 100
E 17 138 99
E 17 139 97
E 17 144 106
E 17 156 96
E 18 24 103
E 18 25 103
E 18 26 100
E 18 27 102
E 18 32 102
E 18 39 103
E 18 44 95
E 18 47 98
E 18 48 103
E 18 55 96
E 18 59 106
E 18 62 94
E 18 71 99
E 18 80 104
E 18 82 97
E 18 87 98
E 18 88 91
E 18 103 106
E 18 104 97
E 18 105 98
E 18 116 102
E 18 122 106
E 18 131 106
E 18 135 101
E 18 143 105
E 18 146 101
E 18 147 97
E 18 148 96
E 18 149 102
E 18 152 94
E 19 23 100
E 19 30 101
E 19 32 109
E 19 37 103
E 19 40 93
E 19 44 96
E 19 47 103
E 19 57 101
E 19 75 107
E 19 78 99
E 19 86 94
E 19 92 101
E 19 113 102
E 19 116 97
E 19 122 109
E 19 132 101
E 19 133 90
E 19 138 98
E 19 141 106
E 19 142 92
E 19 151 99
E 20 29 99
E 20 36 104
E 20 37 102
E 20 46 101
E 20 52 101
E 20 54 90
E 20 56 91
E 20 63 102
E 20 70 92
E 20 71 100
E 20 72 103
E 20 75 92
E 20 76 101
E 20 77 97
E 20 87 103
E 20 91 93
E 20 107 97
E 20 114 103
E 20 118 100
E 20 124 95
E 20 125 103
E 20 129 97
E 20 135 94
E 20 138 104
E 20 153 103
E 20 155 97
E 20 157 102
E 20 158 99
E 21 22 96
E 21 23 104
E 21 28 94
E 21 31 94
E 21 35 101
E 21 52 92
E 21 54 104
E 21 55 94
E 21 57 98
E 21 58 93
E 21 67 102
E 21 95 95
E 21 105 89
E 21 109 94
E 21 131 102
E 21 133 103
E 21 138 102
E 21 146 103
E 21 149 94
E 21 151 112
E 21 154 100
E 22 28 90
E 22 43 90
E 22 46 106
E 22 47 99
E 22 54 94
E 22 57 93
E 22 64 103
E 22 66 103
E 22 71 105
E 22 73 97
E 22 86 106
E 22 88 89
E 22 92 99
E 22 98 105
E 22 104 97
E 22 109 91
E 22 110 95
E 22 113 101
E 22 114 106
E 22 120 104
E 22 131 98
E 22 134 107
E 22 136 108
E 22 141 99
E 22 145 100
E 22 149 98
E 22 151 102
E 22 157 93
E 22 158 96
E 23 24 105
E 23 25 93
E 23 29 96
E 23 31 91
E 23 32 96
E 23 62 98
E 23 70 104
E 23 71 91
E 23 72 108
E 23 74 89
E 23 76 91
E 23 77 100
E 23 79 92
E 23 80 96
E 23 82 99
E 23 94 96
E 23 100 101
E 23 101 105
E 23 104 98
E 23 105 100
E 23 110 102
E 23 113 106
E 23 116 99
E 23 122 92
E 23 124 98
E 23 126 90
E 23 132 90
E 23 133 108
E 23 145 97
E 24 28 100
E 24 32 97
E 24 37 105
E 24 38 103
E 24 45 115
E 24 69 101
E 24 71 103
E 24 73 105
E 24 79 104
E 24 83 82
E 24 86 99
E 24 94 95
E 24 96 106
E 24 97 104
E 24 100 101
E 24 107 92
E 24 115 102
E 24 117 96
E 24 118 105
E 24 124 110
E 24 135 104
E 24 150 100
E 24 158 104
E 25 26 102
E 25 27 105
E 25 29 97
E 25 35 94
E 25 40 98
E 25 44 100
E 25 50 109
E 25 52 101
E 25 54 93
E 25 59 102
E 25 62 94
E 25 76 102
E 25 77 105
E 25 80 101
E 25 91 98
E 25 95 98
E 25 99 97
E 25 107 95
E 25 116 102
E 25 118 104
E 25 122 106
E 25 125 98
E 25 126 93
E 25 128 102
E 25 131 92
E 25 139 113
E 25 141 105
E 25 142 97
E 25 151 104
E 25 159 104
E 26 33 91
E 26 37 105
E 26 44 96
E 26 50 97
E 26 52 92
E 26 53 101
E 26 55 90
E 26 60 101
E 26 64 93
E 26 69 111
E 26 78 103
E 26 85 97
E 26 91 101
E 26 96 99
E 26 97 95
E 26 99 112
E 26 103 102
E 26 109 99
E 26 116 101
E 26 121 103
E 26 129 107
E 26 131 90
E 26 148 99
E 26 156 97
E 26 158 110
E 27 29 95
E 27 32 96
E 27 36 103
E 27 40 87
E 27 41 104
E 27 46 99
E 27 47 99
E 27 48 101
E 27 49 94
E 27 51 104
E 27 56 105
E 27 57 107
E 27 58 96
E 27 63 95
E 27 65 107
E 27 67 99
E 27 76 100
E 27 77 95
E 27 78 99
E 27 83 98
E 27 84 91
E 27 89 89
E 27 92 102
E 27 94 97
E 27 96 98
E 27 98 93
E 27 102 100
E 27 103 99
E 27 104 101
E 27 116 99
E 27 119 98
E 27 123 97
E 27 125 92
E 27 129 103
E 27 134 106
E 28 31 102
E 28 33 102
E 28 47 99
E 28 64 94
E 28 70 96
E 28 72 96
E 28 78 107
E 28 85 100
E 28 88 96
E 28 91 107
E 28 99 102
E 28 102 107
E 28 104 109
E 28 110 91
E 28 113 98
E 28 116 99
E 28 122 107
E 28 127 107
E 28 130 92
E 28 135 103
E 28 144 102
E 28 156 101
E 29 34 97
E 29 35 102
E 29 49 103
E 29 55 106
E 29 60 95
E 29 63 93
E 29 64 97
E 29 72 100
E 29 75 100
E 29 76 88
E 29 77 100
E 29 95 98
E 29 96 94
E 29 98 110
E 29 102 101
E 29 107 103
E 29 113 105
E 29 119 103
E 29 120 102
E 29 134 94
E 29 135 101
E 29 142 102
E 29 147 96
E 29 153 93
E 29 160 100
E 30 32 91
E 30 35 95
E 30 36 103
E 30 40 104
E 30 46 99
E 30 47 109
E 30 53 99
E 30 54 100
E 30 55 101
E 30 57 104
E 30 60 83
E 30 61 105
E 30 65 104
E 30 68 102
E 30 96 93
E 30 99 104
E 30 104 99
E 30 106 99
E 30 109 100
E 30 114 103
E 30 115 99
E 30 116 96
E 30 119 101
E 30 122 100
E 30 124 97
E 30 127 94
E 30 129 96
E 30 137 102
E 30 138 109
E 30 146 100
E 30 150 96
E 30 158 105
E 30 159 98
E 31 34 98
E 31 35 98
E 31 36 110
E 31 38 99
E 31 48 104
E 31 53 95
E 31 67 103
E 31 72 110
E 31 76 99
E 31 82 99
E 31 84 92
E 31 87 94
E 31 88 94
E 31 89 100
E 31 101 94
E 31 111 100
E 31 117 106
E 31 124 95
E 31 127 93
E 31 133 113
E 31 139 92
E 31 143 101
E 31 153 108
E 31 159 100
E 32 41 97
E 32 50 97
E 32 53 100
E 32 54 100
E 32 55 97
E 32 61 95
E 32 62 104
E 32 63 96
E 32 65 97
E 32 68 111
E 32 70 95
E 32 76 98
E 32 77 109
E 32 86 96
E 32 90 94
E 32 91 99
E 32 99 104
E 32 122 100
E 32 131 103
E 32 132 102
E 32 136 107
E 32 145 102
E 32 151 107
E 32 153 97
E 33 44 106
E 33 46 103
E 33 50 95
E 33 52 94
E 33 68 98
E 33 90 95
E 33 109 101
E 33 115 99
E 33 117 89
E 33 136 100
E 33 138 103
E 33 146 91
E 33 151 104
E 33 158 107
E 34 36 107
E 34 38 106
E 34 42 99
E 34 50 114
E 34 52 101
E 34 61 88
E 34 65 103
E 34 71 96
E 34 73 101
E 34 76 99
E 34 79 95
E 34 85 96
E 34 86 92
E 34 98 107
E 34 108 107
E 34 114 95
E 34 116 94
E 34 118 94
E 34 119 109
E 34 123 98
E 34 132 109
E 34 143 93
E 34 150 103
E 34 153 103
E 34 154 102
E 34 159 95
E 35 43 102
E 35 45 108
E 35 47 91
E 35 48 90
E 35 51 88
E 35 58 101
E 35 68 100
E 35 69 95
E 35 77 96
E 35 88 93
E 35 91 106
E 35 92 102
E 35 93 100
E 35 99 85
E 35 109 102
E 35 121 96
E 35 126 102
E 35 134 100
E 35 137 102
E 35 140 96
E 35 143 110
E 35 144 101
E 35 145 100
E 35 146 96
E 35 148 102
E 35 153 92
E 35 154 108
E 36 50 109
E 36 51 96
E 36 56 105
E 36 58 98
E 36 66 100
E 36 68 103
E 36 79 106
E 36 82 98
E 36 83 99
E 36 87 105
E 36 97 92
E 36 110 100
E 36 114 99
E 36 118 95
E 36 119 104
E 36 126 106
E 36 131 103
E 36 133 95
E 36 135 93
E 36 146 106
E 36 148 100
E 36 154 100
E 37 40 99
E 37 51 96
E 37 52 104
E 37 54 98
E 37 56 104
E 37 61 107
E 37 66 99
E 37 67 92
E 37 71 100
E 37 74 108
E 37 76 97
E 37 77 104
E 37 83 107
E 37 102 102
E 37 104 90
E 37 108 109
E 37 111 95
E 37 115 94
E 37 117 94
E 37 119 94
E 37 123 97
E 37 124 104
E 37 127 101
E 37 131 86
E 37 133 102
E 37 148 96
E 37 153 102
E 38 39 105
E 38 56 99
E 38 58 104
E 38 71 98
E 38 74 106
E 38 75 105
E 38 82 98
E 38 88 96
E 38 90 94
E 38 94 99
E 38 95 102
E 38 102 95
E 38 107 103
E 38 112 105
E 38 113 99
E 38 115 96
E 38 118 94
E 38 120 101
E 38 127 93
E 38 129 104
E 38 131 110
E 38 136 101
E 38 148 100
E 38 149 98
E 38 152 100
E 39 54 90
E 39 57 91
E 39 60 91
E 39 71 106
E 39 73 101
E 39 79 93
E 39 83 103
E 39 89 97
E 39 90 94
E 39 98 97
E 39 99 101
E 39 102 104
E 39 103 99
E 39 110 100
E 39 116 103
E 39 122 92
E 39 124 91
E 39 128 96
E 39 132 99
E 39 133 99
E 39 144 98
E 39 148 105
E 39 149 98
E 39 155 102
E 40 43 96
E 40 46 100
E 40 55 101
E 40 60 96
E 40 69 100
E 40 70 100
E 40 76 109
E 40 79 102
E 40 80 106
E 40 86 90
E 40 88 93
E 40 101 103
E 40 107 95
E 40 113 102
E 40 119 95
E 40 125 96
E 40 126 101
E 40 128 102
E 40 131 101
E 40 133 96
E 40 144 103
E 40 145 102
E 40 148 105
E 41 43 96
E 41 50 91
E 41 52 106
E 41 56 100
E 41 58 93
E 41 59 102
E 41 68 98
E 41 73 97
E 41 79 93
E 41 81 92
E 41 85 104
E 41 91 104
E 41 103 105
E 41 104 103
E 41 110 107
E 41 111 102
E 41 117 100
E 41 120 100
E 41 125 104
E 41 137 95
E 41 147 102
E 41 149 107
E 41 152 99
E 41 153 94
E 41 157 104
E 42 45 99
E 42 48 98
E 42 49 92
E 42 59 97
E 42 63 103
E 42 67 106
E 42 72 93
E 42 76 98
E 42 87 99
E 42 92 93
E 42 99 105
E 42 102 96
E 42 105 97
E 42 107 109
E 42 113 101
E 42 119 94
E 42 128 94
E 42 129 94
E 42 134 96
E 42 136 102
E 42 137 103
E 42 141 98
E 42 149 86
E 42 151 104
E 42 152 96
E 42 153 98
E 42 154 98
E 42 155 104
E 42 160 95
E 43 44 98
E 43 46 97
E 43 47 102
E 43 50 92
E 43 59 98
E 43 60 104
E 43 61 95
E 43 71 102
E 43 74 104
E 43 79 100
E 43 83 99
E 43 86 104
E 43 95 94
E 43 102 88
E 43 103 99
E 43 112 94
E 43 123 93
E 43 129 104
E 43 138 105
E 43 141 97
E 43 149 100
E 43 153 105
E 43 160 97
E 44 48 96
E 44 50 105
E 44 51 97
E 44 55 95
E 44 56 92
E 44 61 94
E 44 64 98
E 44 67 101
E 44 75 103
E 44 78 98
E 44 83 107
E 44 84 97
E 44 90 97
E 44 91 100
E 44 94 97
E 44 96 92
E 44 99 103
E 44 103 101
E 44 111 103
E 44 116 96
E 44 123 95
E 44 132 105
E 44 133 92
E 44 135 95
E 44 139 89
E 44 149 103
E 44 152 101
E 44 157 92
E 45 50 101
E 45 52 89
E 45 65 96
E 45 69 94
E 45 73 100
E 45 96 96
E 45 99 107
E 45 105 97
E 45 121 100
E 45 125 109
E 45 126 98
E 45 133 100
E 45 141 93
E 45 149 116
E 45 154 106
E 45 155 101
E 45 160 108
E 46 48 95
E 46 49 105
E 46 57 95
E 46 64 84
E 46 65 106
E 46 78 94
E 46 79 111
E 46 97 108
E 46 98 85
E 46 101 98
E 46 106 101
E 46 110 99
E 46 112 89
E 46 124 102
E 46 134 95
E 46 139 98
E 46 142 98
E 46 146 102
E 46 160 97
E 47 48 111
E 47 52 98
E 47 61 100
E 47 64 98
E 47 67 104
E 47 72 100
E 47 75 105
E 47 86 94
E 47 99 99
E 47 100 104
E 47 102 104
E 47 106 98
E 47 113 99
E 47 122 93
E 47 133 100
E 47 138 97
E 47 139 97
E 47 141 97
E 47 150 96
E 47 151 96
E 47 153 93
E 47 155 97
E 47 157 107
E 48 55 106
E 48 59 104
E 48 60 101
E 48 68 93
E 48 74 97
E 48 80 100
E 48 85 100
E 48 87 108
E 48 88 104
E 48 90 96
E 48 92 98
E 48 102 101
E 48 103 93
E 48 123 104
E 48 129 99
E 48 134 104
E 48 137 102
E 48 138 102
E 48 140 99
E 48 141 97
E 48 145 100
E 48 147 97
E 48 156 96
E 49 50 99
E 49 51 98
E 49 55 101
E 49 58 102
E 49 59 97
E 49 61 97
E 49 62 94
E 49 64 102
E 49 77 96
E 49 78 100
E 49 81 96
E 49 85 98
E 49 89 100
E 49 90 102
E 49 91 95
E 49 93 98
E 49 94 98
E 49 97 109
E 49 100 99
E 49 105 102
E 49 108 91
E 49 113 93
E 49 115 93
E 49 116 93
E 49 145 95
E 49 147 93
E 49 149 101
E 49 156 98
E 50 51 103
E 50 57 104
E 50 61 107
E 50 65 102
E 50 68 98
E 50 72 92
E 50 74 94
E 50 75 100
E 50 77 97
E 50 83 95
E 50 84 105
E 50 85 91
E 50 86 105
E 50 93 103
E 50 94 100
E 50 99 93
E 50 104 100
E 50 108 98
E 50 113 108
E 50 115 93
E 50 118 89
E 50 122 102
E 50 136 92
E 50 141 104
E 50 146 106
E 50 147 101
E 50 155 95
E 51 54 99
E 51 68 101
E 51 73 101
E 51 74 99
E 51 79 101
E 51 86 95
E 51 90 101
E 51 94 92
E 51 95 112
E 51 96 96
E 51 99 103
E 51 114 102
E 51 115 102
E 51 132 105
E 51 143 98
E 51 154 93
E 51 157 107
E 51 158 103
E 51 159 102
E 52 56 107
E 52 64 103
E 52 65 94
E 52 67 91
E 52 68 87
E 52 70 101
E 52 72 100
E 52 74 95
E 52 84 95
E 52 91 99
E 52 97 108
E 52 111 90
E 52 125 91
E 52 127 97
E 52 128 88
E 52 130 95
E 52 136 100
E 52 140 99
E 52 141 99
E 52 142 104
E 52 144 93
E 52 150 99
E 52 153 101
E 52 157 94
E 53 57 99
E 53 69 99
E 53 78 101
E 53 81 96
E 53 86 101
E 53 90 88
E 53 117 99
E 53 118 100
E 53 126 97
E 53 127 98
E 53 143 98
E 53 145 95
E 53 148 109
E 53 149 94
E 53 154 101
E 53 155 104
E 53 158 96
E 53 159 103
E 54 61 104
E 54 62 99
E 54 84 102
E 54 86 107
E 54 91 101
E 54 99 95
E 54 105 92
E 54 121 92
E 54 129 95
E 54 140 102
E 54 160 107
E 55 56 103
E 55 64 100
E 55 66 96
E 55 67 116
E 55 82 94
E 55 83 97
E 55 96 111
E 55 98 106
E 55 101 93
E 55 116 97
E 55 118 107
E 55 127 101
E 55 130 95
E 55 136 101
E 55 138 99
E 55 149 97
E 55 156 102
E 56 69 101
E 56 70 104
E 56 71 105
E 56 72 100
E 56 77 95
E 56 82 99
E 56 84 96
E 56 100 106
E 56 101 95
E 56 106 107
E 56 108 98
E 56 120 104
E 56 124 91
E 56 127 94
E 56 130 97
E 56 134 103
E 56 137 107
E 56 160 101
E 57 61 102
E 57 73 104
E 57 75 103
E 57 80 108
E 57 82 97
E 57 91 96
E 57 92 101
E 57 94 99
E 57 106 106
E 57 107 106
E 57 114 95
E 57 116 104
E 57 124 101
E 57 128 97
E 57 132 91
E 57 137 100
E 57 138 96
E 57 140 98
E 57 151 93
E 57 152 91
E 57 156 87
E 57 157 106
E 57 160 99
E 58 62 101
E 58 71 106
E 58 74 99
E 58 81 103
E 58 97 98
E 58 103 102
E 58 105 89
E 58 115 102
E 58 117 97
E 58 119 98
E 58 121 100
E 58 122 109
E 58 124 101
E 58 125 93
E 58 131 102
E 58 133 97
E 58 138 98
E 58 146 109
E 58 147 105
E 59 66 96
E 59 71 106
E 59 73 89
E 59 76 99
E 59 83 101
E 59 87 92
E 59 92 96
E 59 94 99
E 59 107 105
E 59 120 100
E 59 122 99
E 59 133 100
E 59 143 106
E 59 144 111
E 59 150 95
E 59 158 99
E 59 159 108
E 60 66 102
E 60 69 100
E 60 73 94
E 60 78 100
E 60 79 102
E 60 88 88
E 60 91 102
E 60 96 96
E 60 103 94
E 60 106 107
E 60 114 100
E 60 115 99
E 60 120 83
E 60 129 93
E 60 143 98
E 60 146 95
E 60 149 98
E 60 156 103
E 61 63 102
E 61 64 94
E 61 67 97
E 61 73 104
E 61 74 90
E 61 81 97
E 61 83 104
E 61 90 104
E 61 91 107
E 61 94 100
E 61 108 103
E 61 110 97
E 61 116 92
E 61 117 99
E 61 132 101
E 61 136 100
E 61 137 107
E 61 139 107
E 61 142 97
E 62 64 94
E 62 100 104
E 62 108 93
E 62 119 94
E 62 121 107
E 62 133 97
E 62 138 97
E 62 140 109
E 62 144 97
E 62 145 95
E 62 157 103
E 62 158 109
E 63 65 92
E 63 79 93
E 63 91 98
E 63 111 96
E 63 116 95
E 63 120 103
E 63 122 95
E 63 131 99
E 63 139 106
E 63 141 103
E 63 142 97
E 64 66 102
E 64 67 99
E 64 68 101
E 64 76 95
E 64 85 103
E 64 87 89
E 64 90 100
E 64 92 92
E 64 95 104
E 64 98 98
E 64 101 101
E 64 104 103
E 64 106 103
E 64 120 91
E 64 124 90
E 64 131 92
E 64 132 97
E 64 134 101
E 64 136 105
E 64 144 94
E 64 150 107
E 64 154 99
E 64 157 111
E 65 69 89
E 65 78 103
E 65 85 99
E 65 86 97
E 65 88 92
E 65 90 100
E 65 95 100
E 65 97 106
E 65 99 103
E 65 102 111
E 65 114 91
E 65 118 103
E 65 119 103
E 65 124 101
E 65 126 95
E 65 127 92
E 65 129 99
E 65 130 97
E 65 131 100
E 65 136 95
E 65 138 97
E 65 149 93
E 66 76 109
E 66 78 98
E 66 82 101
E 66 85 99
E 66 92 106
E 66 98 102
E 66 100 99
E 66 105 95
E 66 108 93
E 66 112 95
E 66 119 101
E 66 121 105
E 66 125 99
E 66 127 100
E 66 141 89
E 66 146 98
E 66 152 99
E 66 154 97
E 66 156 90
E 66 158 108
E 66 160 97
E 67 71 109
E 67 72 87
E 67 80 102
E 67 81 99
E 67 133 96
E 67 140 98
E 67 146 102
E 67 152 101
E 67 159 102
E 68 70 93
E 68 72 100
E 68 74 103
E 68 76 99
E 68 79 107
E 68 81 109
E 68 82 97
E 68 84 102
E 68 87 108
E 68 93 100
E 68 97 103
E 68 99 105
E 68 100 101
E 68 105 89
E 68 118 105
E 68 121 99
E 68 126 97
E 68 127 101
E 68 132 101
E 68 134 99
E 68 139 97
E 68 141 102
E 68 143 101
E 68 144 104
E 68 155 107
E 68 157 95
E 68 158 95
E 69 71 109
E 69 74 101
E 69 81 99
E 69 83 103
E 69 84 98
E 69 88 97
E 69 105 105
E 69 118 94
E 69 120 98
E 69 132 103
E 69 139 103
E 69 148 94
E 69 155 102
E 69 156 97
E 69 159 101
E 70 72 102
E 70 100 95
E 70 102 103
E 70 104 100
E 70 108 84
E 70 111 97
E 70 115 94
E 70 122 99
E 70 125 95
E 70 140 98
E 70 141 103
E 70 144 96
E 70 160 96
E 71 78 96
E 71 82 99
E 71 93 95
E 71 95 94
E 71 99 95
E 71 100 105
E 71 101 101
E 71 104 102
E 71 109 100
E 71 123 93
E 71 124 108
E 71 130 95
E 71 136 106
E 71 137 99
E 71 141 98
E 71 142 105
E 71 144 99
E 71 146 95
E 71 147 99
E 71 153 108
E 71 155 98
E 72 74 104
E 72 80 101
E 72 83 106
E 72 84 94
E 72 93 105
E 72 98 100
E 72 100 99
E 72 106 105
E 72 108 87
E 72 125 100
E 72 127 92
E 72 128 95
E 72 129 101
E 72 133 94
E 72 136 107
E 72 138 98
E 72 139 93
E 72 143 110
E 72 144 96
E 72 145 103
E 72 147 95
E 72 150 99
E 73 89 106
E 73 91 103
E 73 92 103
E 73 105 104
E 73 124 104
E 73 133 104
E 73 135 102
E 73 141 91
E 73 146 107
E 73 153 97
E 73 154 98
E 73 159 99
E 74 75 105
E 74 85 99
E 74 94 100
E 74 95 98
E 74 98 109
E 74 103 96
E 74 108 97
E 74 109 89
E 74 114 105
E 74 118 102
E 74 127 101
E 74 128 103
E 74 133 96
E 74 148 100
E 75 77 103
E 75 81 97
E 75 82 103
E 75 87 99
E 75 95 101
E 75 98 101
E 75 107 95
E 75 113 99
E 75 116 97
E 75 120 104
E 75 122 101
E 75 124 98
E 75 127 99
E 75 131 95
E 75 136 97
E 75 137 95
E 75 142 101
E 75 144 102
E 75 145 100
E 76 80 106
E 76 83 109
E 76 85 90
E 76 87 97
E 76 89 102
E 76 90 96
E 76 94 94
E 76 96 89
E 76 97 97
E 76 101 107
E 76 105 89
E 76 110 106
E 76 115 101
E 76 117 94
E 76 120 103
E 76 127 100
E 76 132 97
E 76 142 99
E 76 151 96
E 77 81 98
E 77 94 98
E 77 99 105
E 77 109 100
E 77 110 95
E 77 117 96
E 77 118 101
E 77 154 102
E 77 160 103
E 78 79 104
E 78 84 101
E 78 85 97
E 78 94 95
E 78 96 99
E 78 100 99
E 78 102 101
E 78 103 105
E 78 105 104
E 78 116 101
E 78 123 99
E 78 130 93
E 78 131 99
E 78 144 97
E 78 153 106
E 78 157 106
E 78 159 103
E 79 85 105
E 79 86 95
E 79 87 96
E 79 91 99
E 79 93 101
E 79 97 96
E 79 98 103
E 79 103 108
E 79 106 105
E 79 110 100
E 79 111 103
E 79 113 105
E 79 118 94
E 79 120 104
E 79 123 99
E 79 124 100
E 79 132 96
E 79 138 102
E 79 140 97
E 79 141 92
E 79 143 94
E 79 145 100
E 79 147 98
E 79 155 103
E 79 158 94
E 80 82 92
E 80 86 105
E 80 89 98
E 80 92 89
E 80 95 103
E 80 97 96
E 80 111 113
E 80 114 92
E 80 117 108
E 80 120 108
E 80 127 93
E 80 148 99
E 80 151 101
E 81 83 91
E 81 85 97
E 81 92 101
E 81 99 90
E 81 103 96
E 81 104 100
E 81 112 95
E 81 118 98
E 81 122 97
E 81 123 100
E 81 124 98
E 81 137 88
E 81 144 95
E 81 155 86
E 82 98 99
E 82 108 93
E 82 112 107
E 82 117 102
E 82 123 92
E 82 126 101
E 82 133 107
E 82 138 102
E 82 141 98
E 82 147 93
E 82 151 93
E 82 152 102
E 82 159 97
E 83 85 104
E 83 90 96
E 83 91 98
E 83 92 106
E 83 96 96
E 83 97 95
E 83 100 101
E 83 103 96
E 83 107 98
E 83 113 100
E 83 121 95
E 83 122 108
E 83 125 94
E 83 128 97
E 83 138 101
E 83 140 95
E 83 147 102
E 83 149 93
E 83 150 105
E 83 152 91
E 83 153 104
E 83 154 93
E 83 157 93
E 83 158 97
E 84 97 98
E 84 99 98
E 84 102 106
E 84 110 98
E 84 112 101
E 84 115 94
E 84 123 99
E 84 126 90
E 84 133 91
E 84 140 98
E 84 141 84
E 84 142 101
E 84 143 102
E 84 146 86
E 84 148 105
E 84 150 97
E 84 153 99
E 84 155 103
E 84 156 99
E 85 86 98
E 85 87 104
E 85 90 97
E 85 95 109
E 85 97 106
E 85 100 102
E 85 127 109
E 85 128 99
E 85 142 98
E 85 155 102
E 86 96 108
E 86 108 103
E 86 111 94
E 86 112 97
E 86 113 101
E 86 120 97
E 86 126 97
E 86 131 93
E 86 140 102
E 86 141 106
E 86 149 106
E 86 156 96
E 86 159 86
E 87 88 97
E 87 93 99
E 87 95 103
E 87 98 98
E 87 108 97
E 87 114 101
E 87 115 100
E 87 119 99
E 87 120 103
E 87 122 102
E 87 132 86
E 87 143 89
E 87 153 103
E 87 154 105
E 88 95 102
E 88 97 114
E 88 105 101
E 88 106 97
E 88 114 98
E 88 120 104
E 88 121 105
E 88 130 114
E 88 133 112
E 88 134 100
E 88 145 107
E 88 151 99
E 88 152 100
E 88 160 97
E 89 91 100
E 89 96 96
E 89 97 93
E 89 100 97
E 89 104 107
E 89 106 98
E 89 115 94
E 89 121 108
E 89 123 103
E 89 135 102
E 89 142 99
E 89 148 99
E 89 153 89
E 89 154 105
E 89 155 92
E 89 156 104
E 89 158 100
E 89 160 102
E 90 91 101
E 90 92 106
E 90 95 96
E 90 96 102
E 90 119 99
E 90 126 90
E 90 136 105
E 90 140 101
E 90 142 109
E 90 152 103
E 90 154 110
E 90 160 96
E 91 95 93
E 91 97 98
E 91 98 100
E 91 101 100
E 91 102 104
E 91 107 96
E 91 108 90
E 91 113 106
E 91 117 93
E 91 125 93
E 91 132 104
E 91 135 99
E 91 141 103
E 91 144 101
E 91 146 94
E 91 152 94
E 91 156 103
E 91 160 108
E 92 94 95
E 92 96 103
E 92 97 106
E 92 100 101
E 92 102 96
E 92 103 102
E 92 105 100
E 92 106 96
E 92 112 107
E 92 113 100
E 92 116 94
E 92 117 106
E 92 122 97
E 92 142 103
E 92 150 102
E 92 158 98
E 92 160 97
E 93 94 105
E 93 96 108
E 93 98 93
E 93 99 90
E 93 104 109
E 93 107 96
E 93 110 97
E 93 116 99
E 93 126 111
E 93 127 102
E 93 128 97
E 93 139 98
E 93 150 91
E 93 153 103
E 93 156 90
E 93 159 102
E 94 102 108
E 94 106 95
E 94 108 103
E 94 113 102
E 94 114 101
E 94 123 104
E 94 128 96
E 94 131 97
E 94 143 105
E 94 144 98
E 94 146 102
E 94 148 96
E 94 151 97
E 94 158 112
E 94 160 97
E 95 101 91
E 95 104 102
E 95 105 98
E 95 121 98
E 95 128 104
E 95 131 94
E 95 133 97
E 95 142 108
E 95 146 101
E 95 152 99
E 95 156 102
E 96 99 98
E 96 101 97
E 96 107 99
E 96 108 99
E 96 115 92
E 96 123 93
E 96 126 96
E 96 127 99
E 96 131 104
E 96 143 98
E 96 146 103
E 97 98 94
E 97 99 95
E 97 108 101
E 97 120 96
E 97 122 95
E 97 125 105
E 97 137 97
E 97 147 89
E 97 151 105
E 98 110 105
E 98 112 106
E 98 122 102
E 98 130 102
E 98 135 94
E 98 136 100
E 98 139 95
E 98 145 93
E 98 146 96
E 98 147 103
E 98 153 108
E 98 155 100
E 98 158 95
E 99 101 101
E 99 105 97
E 99 107 103
E 99 108 102
E 99 109 100
E 99 115 100
E 99 117 91
E 99 125 104
E 99 132 93
E 99 136 103
E 99 138 99
E 99 140 95
E 99 145 108
E 99 150 99
E 99 151 107
E 99 156 110
E 100 103 90
E 100 108 98
E 100 115 107
E 100 123 96
E 100 128 99
E 100 132 100
E 100 133 99
E 100 139 99
E 100 151 104
E 100 152 93
E 101 105 100
E 101 119 98
E 101 124 96
E 101 130 95
E 101 131 100
E 101 145 104
E 101 147 100
E 101 153 100
E 102 111 102
E 102 112 97
E 102 122 111
E 102 124 109
E 102 129 107
E 102 130 96
E 102 133 106
E 102 135 100
E 102 137 97
E 102 143 98
E 102 145 99
E 102 147 103
E 102 152 95
E 102 158 106
E 103 114 96
E 103 118 100
E 103 119 107
E 103 124 103
E 103 126 96
E 103 129 109
E 103 130 103
E 103 132 110
E 103 136 100
E 103 137 97
E 103 138 100
E 103 141 95
E 103 143 96
E 103 155 107
E 103 158 106
E 104 110 93
E 104 114 96
E 104 115 98
E 104 126 95
E 104 129 104
E 104 133 97
E 104 136 103
E 104 138 101
E 104 139 99
E 104 142 102
E 104 154 94
E 104 156 97
E 105 109 99
E 105 112 100
E 105 116 94
E 105 119 96
E 105 128 95
E 105 133 88
E 105 142 101
E 105 146 96
E 105 150 95
E 105 159 101
E 106 117 100
E 106 118 100
E 106 122 92
E 106 129 90
E 106 145 98
E 106 151 99
E 106 153 99
E 106 156 95
E 106 157 103
E 106 160 95
E 107 108 99
E 107 114 96
E 107 115 94
E 107 117 96
E 107 120 99
E 107 123 109
E 107 126 96
E 107 131 96
E 107 139 99
E 107 141 98
E 107 143 100
E 107 147 101
E 107 149 97
E 107 151 96
E 108 110 99
E 108 117 95
E 108 121 105
E 108 123 99
E 108 124 96
E 108 125 100
E 108 127 103
E 108 130 96
E 108 131 93
E 108 139 94
E 108 142 96
E 108 143 95
E 108 147 96
E 108 149 105
E 109 127 99
E 109 129 100
E 109 132 94
E 109 135 100
E 109 138 92
E 109 139 103
E 109 141 104
E 109 145 95
E 109 148 106
E 109 153 104
E 109 156 98
E 109 157 99
E 109 159 103
E 110 111 101
E 110 114 101
E 110 117 91
E 110 137 97
E 110 138 111
E 110 140 105
E 110 145 115
E 110 146 96
E 110 147 93
E 110 148 94
E 110 149 98
E 111 117 95
E 111 123 101
E 111 126 104
E 111 128 106
E 111 130 99
E 111 134 94
E 111 135 107
E 111 136 93
E 111 137 103
E 111 141 94
E 111 142 105
E 111 146 104
E 111 158 104
E 112 114 100
E 112 115 97
E 112 117 100
E 112 121 104
E 112 122 97
E 112 126 100
E 112 135 105
E 112 150 103
E 112 158 98
E 113 116 98
E 113 117 93
E 113 126 94
E 113 133 102
E 113 134 103
E 113 135 96
E 113 146 99
E 113 152 104
E 113 156 97
E 114 116 98
E 114 125 99
E 114 126 98
E 114 133 103
E 114 135 108
E 114 136 98
E 114 139 103
E 114 140 102
E 114 147 104
E 115 122 104
E 115 123 94
E 115 126 105
E 115 130 99
E 115 131 108
E 115 136 101
E 115 139 102
E 115 145 102
E 115 154 92
E 115 157 99
E 116 125 103
E 116 131 88
E 116 134 100
E 116 137 107
E 116 150 102
E 116 155 91
E 117 119 97
E 117 121 107
E 117 122 101
E 117 124 95
E 117 126 104
E 117 127 110
E 117 129 96
E 117 130 92
E 117 134 99
E 117 136 100
E 117 139 103
E 117 145 103
E 117 150 102
E 117 152 96
E 117 155 105
E 117 156 102
E 117 157 96
E 118 124 100
E 118 125 100
E 118 126 101
E 118 128 98
E 118 133 101
E 118 137 100
E 118 139 103
E 118 142 106
E 118 143 104
E 118 152 100
E 119 122 92
E 119 130 93
E 119 132 91
E 119 134 100
E 119 138 107
E 119 139 100
E 119 146 93
E 119 149 90
E 119 153 101
E 119 158 101
E 119 160 95
E 120 124 93
E 120 125 100
E 120 132 101
E 120 135 101
E 120 136 107
E 120 152 100
E 120 157 97
E 120 158 102
E 120 160 98
E 121 122 104
E 121 126 91
E 121 135 103
E 121 137 87
E 121 143 97
E 121 151 109
E 121 154 105
E 122 131 97
E 122 137 104
E 122 142 94
E 122 153 89
E 122 156 97
E 123 133 100
E 123 142 89
E 123 143 98
E 123 146 97
E 123 147 102
E 123 148 99
E 123 158 103
E 123 160 97
E 124 132 103
E 124 136 104
E 124 137 101
E 124 142 100
E 124 144 105
E 124 148 102
E 124 150 90
E 124 154 102
E 125 127 98
E 125 128 100
E 125 135 106
E 125 136 96
E 125 139 102
E 125 142 94
E 125 146 102
E 125 154 109
E 126 132 96
E 126 134 108
E 126 156 95
E 127 153 107
E 128 136 93
E 128 137 101
E 128 141 97
E 128 149 92
E 128 157 99
E 128 158 110
E 129 133 101
E 129 136 106
E 129 155 96
E 129 159 101
E 130 135 101
E 130 136 100
E 130 142 93
E 130 149 97
E 130 150 98
E 130 151 108
E 130 155 101
E 130 156 105
E 130 158 102
E 131 134 104
E 131 136 103
E 131 137 101
E 131 145 91
E 131 146 97
E 131 152 100
E 131 157 98
E 132 133 94
E 132 139 95
E 132 141 98
E 132 142 94
E 132 148 99
E 132 151 100
E 132 157 100
E 132 158 103
E 133 137 98
E 133 148 104
E 133 152 101
E 133 154 97
E 133 155 94
E 133 159 94
E 134 136 99
E 134 140 100
E 134 144 101
E 134 145 99
E 134 146 98
E 134 150 98
E 134 154 99
E 134 155 103
E 135 137 113
E 135 146 98
E 135 150 100
E 135 151 98
E 135 156 101
E 136 139 99
E 136 140 98
E 136 146 106
E 136 152 110
E 136 153 98
E 136 155 97
E 136 158 96
E 137 139 96
E 137 141 95
E 137 151 103
E 137 159 98
E 138 141 96
E 138 144 109
E 138 153 95
E 139 143 98
E 139 151 98
E 139 156 96
E 139 158 103
E 140 147 98
E 140 151 107
E 141 144 100
E 141 154 95
E 141 155 100
E 141 159 105
E 142 143 103
E 142 145 100
E 142 159 87
E 143 150 97
E 143 151 99
E 143 153 103
E 143 159 111
E 143 160 97
E 144 148 93
E 144 153 102
E 144 156 89
E 144 160 98
E 145 151 95
E 145 159 100
E 146 150 100
E 146 153 98
E 147 151 93
E 147 154 91
E 147 157 95
E 147 159 97
E 148 150 99
E 148 153 103
E 148 160 94
E 149 153 96
E 149 154 104
E 149 159 100
E 149 160 100
E 150 156 104
E 150 159 102
E 151 157 88
E 152 155 106
E 152 157 93
E 152 158 100
E 153 160 96
E 154 155 104
E 154 157 87
E 154 158 104
E 157 158 94
E 159 160 94
END

SECTION Terminals
Terminals 12
T 1
T 2
T 3
T 4
T 5
T 6
T 7
T 8
T 9
T 10
T 11
T 12
END

EOF
